#########################################################
#							#
#							#
#		Script by K. Sriram			#
#		written on 04/12/2021			#
#                   To Replicate   			#
#	   Soft Matter, 2014, 10, 4479–4486		#
#########################################################
log			log.nvt_run
################### System Setup ########################
variable	eq_step		equal	1.0e7
variable	pro_step	equal	1.0e6
variable	dt		equal	0.001
variable	thermo_step	equal	1000
variable	epsilon		equal	1
variable	sigma		equal	1.0
variable	part_num	equal	500
variable	lj_cut		equal	2.5*${sigma}
variable 	S 		equal 	step
variable 	T 		equal 	temp
variable 	P 		equal 	press
variable 	V 		equal 	vol
variable	rho		equal	1.0
variable 	Ke 		equal 	ke
variable 	Pe 		equal 	pe
variable 	E 		equal 	etotal
variable 	EP 		equal 	epair
variable	eq_dump		equal	1e3
variable	pro_dump	equal	1e3
variable	box_length	equal   ceil((${part_num}/${rho})^(1/3))

################### Initialization ######################

units			lj
dimension		3
boundary		p p p
atom_style		atomic
lattice			sc ${rho}
region 			box block 0.0 ${box_length} 0.0 ${box_length} 0.0 ${box_length}
create_box		1 box
create_atoms		1 box
mass			1 1.0

################## Force Parameters ####################
pair_style		lj/cut ${lj_cut}
pair_coeff              1 1 ${epsilon} ${sigma} ${lj_cut}

pair_write		1 1 600 r 0.995 2.5 potential.dat LJ
######################### RUN ###########################
min_style		sd
minimize		1.0e-6 1.0e-8 1000 10000
velocity		all create 1.0 89562387


fix			1 all nvt temp 1.0 1.0 200

thermo_style            custom step temp press pe ke etotal density
thermo                  ${thermo_step}

timestep		${dt}
fix			3 all print ${thermo_step} "$S $T $P ${Pe} ${Ke} $E ${EP}" file equilibration.dat

dump			 1 all custom/gz ${eq_dump} dump.equilibration.gz id x y z
dump			 2 all atom/gz ${eq_dump} dump.equilibration_atom.gz 
run                     ${eq_step}
undump                  1
undump			 2
unfix			3

write_restart           equilibrium.restart


print                   "**************************************************************************"
print                   "#################### Equilibration Over ##################################"
print                   "**************************************************************************"

dump                    11 all custom/gz ${pro_dump} dump.production.gz id x y z
dump			 13 all atom/gz ${pro_dump} dump.production.atom.gz
fix                     4 all print ${thermo_step} "$S $T $P ${Pe} ${Ke} $E ${EP}" file production.dat

#########RDF calculation###############
compute			    AA all rdf 500 1 1 cutoff 2.5
fix			    5 all ave/time 10 100 1000000 c_AA[*] file rdf_nvt.dat mode vector

run                     ${pro_step}
write_restart           production.restart
unfix			4

print			"***********************Succesfully Ran the Simulation************************"

################### End Of File	##########################
